100 10
775 456
970 531
724 459
434 689
716 655
475 850
372 424
556 346
97 400
704 239
458 842
282 476
295 887
374 197
310 298
604 242
568 538
623 320
513 475
534 573
415 414
304 721
208 920
569 507
455 390
941 691
228 900
827 891
276 737
590 736
617 605
266 338
411 305
43 618
818 437
625 404
238 838
485 521
480 337
460 821
403 728
540 711
751 774
509 434
450 327
452 558
504 554
342 365
136 949
89 650
558 585
581 237
368 238
771 693
396 443
215 725
380 662
467 401
714 274
421 574
211 378
605 146
729 738
387 801
550 372
448 254
192 312
780 700
573 187
758 292
542 334
622 458
420 659
252 129
711 416
612 752
310 409
545 488
312 705
347 556
299 912
484 601
450 457
738 358
413 461
390 268
795 628
799 523
697 272
565 240
635 813
935 626
494 569
586 516
321 617
936 759
556 458
34 625
323 725
388 607
